90 4005
1 2 80
1 3 243
1 4 89
1 5 236
1 6 131
1 7 163
1 8 178
1 9 198
1 10 84
1 11 105
1 12 179
1 13 203
1 14 92
1 15 180
1 16 145
1 17 245
1 18 122
1 19 226
1 20 19
1 21 141
1 22 189
1 23 162
1 24 260
1 25 129
1 26 76
1 27 12
1 28 114
1 29 163
1 30 132
1 31 148
1 32 5
1 33 125
1 34 172
1 35 109
1 36 235
1 37 94
1 38 31
1 39 189
1 40 180
1 41 74
1 42 102
1 43 129
1 44 212
1 45 78
1 46 201
1 47 73
1 48 21
1 49 269
1 50 178
1 51 4
1 52 93
1 53 147
1 54 176
1 55 125
1 56 218
1 57 245
1 58 47
1 59 174
1 60 69
1 61 127
1 62 138
1 63 77
1 64 48
1 65 15
1 66 103
1 67 248
1 68 24
1 69 141
1 70 256
1 71 97
1 72 113
1 73 129
1 74 250
1 75 111
1 76 7
1 77 10
1 78 144
1 79 263
1 80 178
1 81 79
1 82 17
1 83 65
1 84 264
1 85 18
1 86 186
1 87 32
1 88 213
1 89 180
1 90 141
2 3 171
2 4 203
2 5 128
2 6 206
2 7 154
2 8 211
2 9 24
2 10 147
2 11 178
2 12 163
2 13 161
2 14 90
2 15 240
2 16 39
2 17 257
2 18 33
2 19 148
2 20 148
2 21 250
2 22 160
2 23 229
2 24 162
2 25 159
2 26 68
2 27 84
2 28 6
2 29 43
2 30 256
2 31 81
2 32 240
2 33 23
2 34 66
2 35 248
2 36 37
2 37 71
2 38 159
2 39 202
2 40 263
2 41 101
2 42 149
2 43 81
2 44 182
2 45 2
2 46 59
2 47 4
2 48 164
2 49 53
2 50 217
2 51 113
2 52 268
2 53 67
2 54 11
2 55 161
2 56 246
2 57 79
2 58 75
2 59 268
2 60 228
2 61 106
2 62 101
2 63 38
2 64 135
2 65 57
2 66 205
2 67 129
2 68 109
2 69 234
2 70 52
2 71 176
2 72 205
2 73 188
2 74 59
2 75 135
2 76 111
2 77 53
2 78 88
2 79 254
2 80 247
2 81 129
2 82 43
2 83 168
2 84 33
2 85 230
2 86 105
2 87 107
2 88 55
2 89 96
2 90 229
3 4 67
3 5 161
3 6 153
3 7 40
3 8 105
3 9 241
3 10 44
3 11 46
3 12 240
3 13 28
3 14 257
3 15 62
3 16 182
3 17 268
3 18 184
3 19 132
3 20 15
3 21 253
3 22 112
3 23 114
3 24 106
3 25 46
3 26 59
3 27 117
3 28 91
3 29 184
3 30 111
3 31 234
3 32 8
3 33 224
3 34 136
3 35 34
3 36 255
3 37 30
3 38 65
3 39 5
3 40 201
3 41 239
3 42 84
3 43 100
3 44 216
3 45 98
3 46 85
3 47 154
3 48 187
3 49 232
3 50 7
3 51 34
3 52 161
3 53 40
3 54 77
3 55 17
3 56 183
3 57 172
3 58 65
3 59 164
3 60 112
3 61 168
3 62 38
3 63 134
3 64 33
3 65 7
3 66 7
3 67 99
3 68 231
3 69 155
3 70 265
3 71 73
3 72 145
3 73 166
3 74 104
3 75 241
3 76 5
3 77 46
3 78 28
3 79 80
3 80 107
3 81 64
3 82 128
3 83 184
3 84 264
3 85 231
3 86 55
3 87 169
3 88 17
3 89 131
3 90 71
4 5 148
4 6 109
4 7 184
4 8 99
4 9 51
4 10 126
4 11 50
4 12 59
4 13 251
4 14 189
4 15 240
4 16 230
4 17 245
4 18 26
4 19 238
4 20 196
4 21 182
4 22 247
4 23 23
4 24 1
4 25 207
4 26 184
4 27 86
4 28 87
4 29 41
4 30 157
4 31 268
4 32 228
4 33 76
4 34 72
4 35 55
4 36 237
4 37 149
4 38 134
4 39 195
4 40 120
4 41 265
4 42 145
4 43 203
4 44 202
4 45 69
4 46 51
4 47 179
4 48 221
4 49 27
4 50 30
4 51 197
4 52 11
4 53 200
4 54 257
4 55 241
4 56 199
4 57 130
4 58 206
4 59 113
4 60 0
4 61 126
4 62 237
4 63 124
4 64 235
4 65 239
4 66 159
4 67 264
4 68 220
4 69 194
4 70 7
4 71 102
4 72 113
4 73 77
4 74 222
4 75 91
4 76 113
4 77 114
4 78 125
4 79 238
4 80 117
4 81 144
4 82 157
4 83 118
4 84 183
4 85 116
4 86 9
4 87 36
4 88 145
4 89 27
4 90 215
5 6 254
5 7 245
5 8 72
5 9 92
5 10 173
5 11 177
5 12 87
5 13 64
5 14 14
5 15 26
5 16 164
5 17 142
5 18 81
5 19 56
5 20 106
5 21 151
5 22 95
5 23 146
5 24 82
5 25 18
5 26 51
5 27 267
5 28 244
5 29 241
5 30 203
5 31 5
5 32 233
5 33 228
5 34 11
5 35 95
5 36 168
5 37 54
5 38 170
5 39 175
5 40 256
5 41 105
5 42 21
5 43 245
5 44 209
5 45 89
5 46 161
5 47 153
5 48 114
5 49 128
5 50 21
5 51 235
5 52 115
5 53 57
5 54 227
5 55 47
5 56 93
5 57 225
5 58 210
5 59 192
5 60 242
5 61 140
5 62 184
5 63 16
5 64 94
5 65 93
5 66 203
5 67 142
5 68 243
5 69 118
5 70 68
5 71 48
5 72 39
5 73 142
5 74 255
5 75 133
5 76 249
5 77 13
5 78 38
5 79 256
5 80 139
5 81 239
5 82 58
5 83 96
5 84 89
5 85 260
5 86 49
5 87 246
5 88 59
5 89 223
5 90 13
6 7 155
6 8 105
6 9 262
6 10 182
6 11 180
6 12 108
6 13 29
6 14 177
6 15 177
6 16 114
6 17 12
6 18 93
6 19 122
6 20 63
6 21 49
6 22 207
6 23 166
6 24 252
6 25 17
6 26 212
6 27 125
6 28 235
6 29 173
6 30 156
6 31 60
6 32 182
6 33 67
6 34 189
6 35 231
6 36 167
6 37 266
6 38 210
6 39 204
6 40 268
6 41 115
6 42 150
6 43 183
6 44 235
6 45 71
6 46 2
6 47 62
6 48 157
6 49 48
6 50 72
6 51 98
6 52 128
6 53 3
6 54 5
6 55 29
6 56 114
6 57 227
6 58 161
6 59 73
6 60 96
6 61 231
6 62 129
6 63 57
6 64 256
6 65 113
6 66 34
6 67 139
6 68 226
6 69 146
6 70 1
6 71 65
6 72 1
6 73 184
6 74 212
6 75 63
6 76 84
6 77 107
6 78 108
6 79 235
6 80 192
6 81 238
6 82 192
6 83 145
6 84 154
6 85 159
6 86 161
6 87 159
6 88 122
6 89 52
6 90 36
7 8 136
7 9 89
7 10 55
7 11 181
7 12 151
7 13 80
7 14 176
7 15 131
7 16 238
7 17 86
7 18 14
7 19 15
7 20 81
7 21 223
7 22 37
7 23 117
7 24 93
7 25 232
7 26 170
7 27 84
7 28 155
7 29 224
7 30 86
7 31 22
7 32 238
7 33 31
7 34 249
7 35 132
7 36 249
7 37 165
7 38 6
7 39 46
7 40 101
7 41 232
7 42 108
7 43 266
7 44 133
7 45 161
7 46 119
7 47 75
7 48 188
7 49 28
7 50 232
7 51 250
7 52 68
7 53 140
7 54 193
7 55 11
7 56 240
7 57 52
7 58 161
7 59 244
7 60 213
7 61 216
7 62 102
7 63 33
7 64 164
7 65 159
7 66 45
7 67 101
7 68 167
7 69 157
7 70 254
7 71 83
7 72 251
7 73 54
7 74 144
7 75 229
7 76 170
7 77 147
7 78 170
7 79 132
7 80 72
7 81 222
7 82 224
7 83 98
7 84 31
7 85 43
7 86 1
7 87 145
7 88 13
7 89 215
7 90 3
8 9 217
8 10 237
8 11 201
8 12 83
8 13 77
8 14 75
8 15 51
8 16 217
8 17 185
8 18 121
8 19 13
8 20 174
8 21 215
8 22 18
8 23 91
8 24 261
8 25 186
8 26 241
8 27 230
8 28 92
8 29 27
8 30 198
8 31 190
8 32 258
8 33 84
8 34 233
8 35 94
8 36 169
8 37 237
8 38 115
8 39 224
8 40 184
8 41 227
8 42 39
8 43 127
8 44 134
8 45 165
8 46 227
8 47 133
8 48 86
8 49 109
8 50 188
8 51 249
8 52 126
8 53 50
8 54 174
8 55 239
8 56 43
8 57 68
8 58 221
8 59 1
8 60 259
8 61 264
8 62 152
8 63 85
8 64 234
8 65 106
8 66 131
8 67 247
8 68 176
8 69 113
8 70 178
8 71 253
8 72 253
8 73 227
8 74 98
8 75 213
8 76 253
8 77 19
8 78 144
8 79 110
8 80 138
8 81 49
8 82 212
8 83 223
8 84 224
8 85 125
8 86 19
8 87 18
8 88 246
8 89 269
8 90 141
9 10 30
9 11 80
9 12 231
9 13 223
9 14 106
9 15 260
9 16 121
9 17 233
9 18 178
9 19 68
9 20 209
9 21 233
9 22 204
9 23 262
9 24 218
9 25 60
9 26 249
9 27 217
9 28 21
9 29 133
9 30 36
9 31 36
9 32 76
9 33 150
9 34 198
9 35 195
9 36 191
9 37 126
9 38 109
9 39 8
9 40 269
9 41 176
9 42 80
9 43 19
9 44 155
9 45 268
9 46 255
9 47 59
9 48 95
9 49 259
9 50 63
9 51 89
9 52 134
9 53 168
9 54 170
9 55 203
9 56 65
9 57 158
9 58 202
9 59 94
9 60 145
9 61 156
9 62 184
9 63 101
9 64 234
9 65 6
9 66 254
9 67 186
9 68 169
9 69 157
9 70 26
9 71 228
9 72 72
9 73 192
9 74 55
9 75 217
9 76 9
9 77 223
9 78 249
9 79 237
9 80 123
9 81 261
9 82 84
9 83 178
9 84 170
9 85 198
9 86 41
9 87 17
9 88 52
9 89 209
9 90 111
10 11 137
10 12 65
10 13 229
10 14 264
10 15 85
10 16 184
10 17 2
10 18 269
10 19 180
10 20 76
10 21 85
10 22 78
10 23 38
10 24 248
10 25 136
10 26 76
10 27 119
10 28 155
10 29 231
10 30 139
10 31 20
10 32 170
10 33 76
10 34 34
10 35 103
10 36 49
10 37 54
10 38 189
10 39 82
10 40 213
10 41 62
10 42 94
10 43 95
10 44 42
10 45 99
10 46 12
10 47 50
10 48 52
10 49 18
10 50 83
10 51 82
10 52 230
10 53 9
10 54 165
10 55 165
10 56 240
10 57 94
10 58 179
10 59 151
10 60 213
10 61 139
10 62 224
10 63 108
10 64 51
10 65 180
10 66 113
10 67 257
10 68 244
10 69 217
10 70 230
10 71 14
10 72 108
10 73 30
10 74 28
10 75 106
10 76 17
10 77 172
10 78 222
10 79 244
10 80 4
10 81 32
10 82 58
10 83 162
10 84 146
10 85 234
10 86 234
10 87 66
10 88 136
10 89 121
10 90 58
11 12 248
11 13 68
11 14 202
11 15 182
11 16 239
11 17 89
11 18 51
11 19 49
11 20 204
11 21 36
11 22 156
11 23 148
11 24 168
11 25 142
11 26 250
11 27 80
11 28 11
11 29 148
11 30 183
11 31 186
11 32 213
11 33 123
11 34 196
11 35 146
11 36 53
11 37 74
11 38 67
11 39 175
11 40 245
11 41 251
11 42 24
11 43 42
11 44 169
11 45 156
11 46 46
11 47 7
11 48 181
11 49 206
11 50 202
11 51 260
11 52 103
11 53 124
11 54 224
11 55 261
11 56 50
11 57 32
11 58 158
11 59 19
11 60 160
11 61 132
11 62 97
11 63 15
11 64 115
11 65 128
11 66 62
11 67 262
11 68 0
11 69 39
11 70 177
11 71 3
11 72 101
11 73 100
11 74 243
11 75 262
11 76 18
11 77 198
11 78 73
11 79 94
11 80 243
11 81 56
11 82 52
11 83 216
11 84 235
11 85 173
11 86 247
11 87 198
11 88 162
11 89 0
11 90 253
12 13 153
12 14 194
12 15 163
12 16 195
12 17 176
12 18 208
12 19 256
12 20 234
12 21 121
12 22 165
12 23 171
12 24 115
12 25 49
12 26 103
12 27 13
12 28 197
12 29 153
12 30 40
12 31 168
12 32 193
12 33 158
12 34 112
12 35 241
12 36 58
12 37 236
12 38 160
12 39 211
12 40 125
12 41 139
12 42 102
12 43 134
12 44 28
12 45 95
12 46 133
12 47 143
12 48 219
12 49 182
12 50 191
12 51 110
12 52 48
12 53 142
12 54 101
12 55 130
12 56 246
12 57 63
12 58 188
12 59 245
12 60 143
12 61 170
12 62 131
12 63 192
12 64 227
12 65 61
12 66 199
12 67 71
12 68 155
12 69 158
12 70 114
12 71 168
12 72 234
12 73 47
12 74 166
12 75 163
12 76 155
12 77 164
12 78 59
12 79 268
12 80 84
12 81 266
12 82 236
12 83 234
12 84 226
12 85 205
12 86 3
12 87 64
12 88 89
12 89 252
12 90 181
13 14 140
13 15 256
13 16 90
13 17 128
13 18 224
13 19 126
13 20 265
13 21 255
13 22 224
13 23 211
13 24 37
13 25 223
13 26 121
13 27 99
13 28 212
13 29 133
13 30 171
13 31 144
13 32 133
13 33 114
13 34 1
13 35 67
13 36 243
13 37 267
13 38 154
13 39 21
13 40 108
13 41 32
13 42 42
13 43 32
13 44 106
13 45 98
13 46 166
13 47 90
13 48 223
13 49 24
13 50 2
13 51 126
13 52 218
13 53 114
13 54 124
13 55 186
13 56 227
13 57 146
13 58 161
13 59 243
13 60 41
13 61 185
13 62 94
13 63 195
13 64 76
13 65 121
13 66 147
13 67 137
13 68 255
13 69 213
13 70 12
13 71 76
13 72 175
13 73 105
13 74 188
13 75 239
13 76 185
13 77 122
13 78 199
13 79 197
13 80 242
13 81 57
13 82 218
13 83 214
13 84 212
13 85 120
13 86 177
13 87 0
13 88 243
13 89 44
13 90 205
14 15 46
14 16 80
14 17 83
14 18 153
14 19 154
14 20 121
14 21 166
14 22 159
14 23 105
14 24 84
14 25 152
14 26 27
14 27 223
14 28 240
14 29 42
14 30 158
14 31 53
14 32 210
14 33 137
14 34 4
14 35 199
14 36 26
14 37 143
14 38 196
14 39 160
14 40 29
14 41 265
14 42 116
14 43 45
14 44 177
14 45 252
14 46 33
14 47 180
14 48 181
14 49 257
14 50 38
14 51 163
14 52 20
14 53 63
14 54 63
14 55 240
14 56 23
14 57 265
14 58 264
14 59 78
14 60 143
14 61 152
14 62 46
14 63 88
14 64 267
14 65 73
14 66 144
14 67 75
14 68 39
14 69 80
14 70 122
14 71 105
14 72 233
14 73 256
14 74 57
14 75 16
14 76 266
14 77 120
14 78 124
14 79 264
14 80 150
14 81 247
14 82 66
14 83 268
14 84 141
14 85 163
14 86 161
14 87 82
14 88 217
14 89 38
14 90 26
15 16 89
15 17 177
15 18 171
15 19 75
15 20 164
15 21 92
15 22 72
15 23 150
15 24 176
15 25 261
15 26 33
15 27 182
15 28 36
15 29 167
15 30 5
15 31 18
15 32 219
15 33 247
15 34 143
15 35 247
15 36 26
15 37 115
15 38 143
15 39 52
15 40 64
15 41 157
15 42 180
15 43 58
15 44 261
15 45 133
15 46 244
15 47 250
15 48 100
15 49 253
15 50 61
15 51 89
15 52 200
15 53 167
15 54 129
15 55 39
15 56 222
15 57 63
15 58 101
15 59 182
15 60 21
15 61 30
15 62 238
15 63 72
15 64 253
15 65 67
15 66 34
15 67 148
15 68 5
15 69 70
15 70 159
15 71 257
15 72 170
15 73 186
15 74 125
15 75 93
15 76 128
15 77 62
15 78 182
15 79 123
15 80 156
15 81 226
15 82 203
15 83 23
15 84 27
15 85 98
15 86 200
15 87 246
15 88 135
15 89 187
15 90 207
16 17 96
16 18 54
16 19 236
16 20 45
16 21 231
16 22 32
16 23 201
16 24 51
16 25 172
16 26 191
16 27 73
16 28 225
16 29 197
16 30 158
16 31 226
16 32 200
16 33 150
16 34 30
16 35 106
16 36 13
16 37 246
16 38 214
16 39 148
16 40 244
16 41 177
16 42 234
16 43 239
16 44 257
16 45 264
16 46 100
16 47 21
16 48 66
16 49 149
16 50 150
16 51 222
16 52 236
16 53 49
16 54 39
16 55 165
16 56 227
16 57 56
16 58 67
16 59 228
16 60 103
16 61 116
16 62 117
16 63 37
16 64 182
16 65 163
16 66 83
16 67 11
16 68 136
16 69 100
16 70 78
16 71 125
16 72 10
16 73 210
16 74 72
16 75 145
16 76 81
16 77 55
16 78 237
16 79 61
16 80 229
16 81 98
16 82 114
16 83 88
16 84 41
16 85 226
16 86 98
16 87 21
16 88 109
16 89 260
16 90 110
17 18 257
17 19 91
17 20 161
17 21 132
17 22 177
17 23 63
17 24 135
17 25 4
17 26 76
17 27 190
17 28 126
17 29 6
17 30 76
17 31 154
17 32 262
17 33 18
17 34 61
17 35 128
17 36 230
17 37 109
17 38 44
17 39 48
17 40 159
17 41 145
17 42 254
17 43 227
17 44 147
17 45 30
17 46 130
17 47 218
17 48 3
17 49 145
17 50 107
17 51 44
17 52 251
17 53 180
17 54 8
17 55 205
17 56 192
17 57 186
17 58 264
17 59 41
17 60 184
17 61 46
17 62 27
17 63 248
17 64 0
17 65 64
17 66 257
17 67 189
17 68 225
17 69 227
17 70 84
17 71 111
17 72 132
17 73 98
17 74 214
17 75 241
17 76 106
17 77 213
17 78 251
17 79 47
17 80 171
17 81 57
17 82 235
17 83 164
17 84 193
17 85 203
17 86 255
17 87 35
17 88 102
17 89 165
17 90 101
18 19 214
18 20 76
18 21 244
18 22 162
18 23 189
18 24 49
18 25 132
18 26 111
18 27 77
18 28 256
18 29 96
18 30 185
18 31 69
18 32 54
18 33 126
18 34 38
18 35 30
18 36 129
18 37 131
18 38 75
18 39 35
18 40 242
18 41 109
18 42 85
18 43 64
18 44 218
18 45 96
18 46 34
18 47 199
18 48 207
18 49 264
18 50 109
18 51 23
18 52 200
18 53 262
18 54 97
18 55 219
18 56 8
18 57 71
18 58 261
18 59 41
18 60 74
18 61 52
18 62 41
18 63 54
18 64 88
18 65 58
18 66 130
18 67 138
18 68 196
18 69 267
18 70 249
18 71 247
18 72 19
18 73 196
18 74 231
18 75 113
18 76 1
18 77 140
18 78 220
18 79 229
18 80 91
18 81 7
18 82 242
18 83 57
18 84 22
18 85 208
18 86 71
18 87 193
18 88 218
18 89 219
18 90 244
19 20 11
19 21 158
19 22 105
19 23 239
19 24 66
19 25 221
19 26 183
19 27 188
19 28 167
19 29 226
19 30 38
19 31 244
19 32 209
19 33 143
19 34 25
19 35 66
19 36 239
19 37 51
19 38 119
19 39 45
19 40 245
19 41 132
19 42 210
19 43 144
19 44 182
19 45 78
19 46 80
19 47 89
19 48 238
19 49 232
19 50 148
19 51 161
19 52 180
19 53 49
19 54 197
19 55 79
19 56 196
19 57 93
19 58 19
19 59 134
19 60 127
19 61 44
19 62 35
19 63 114
19 64 221
19 65 32
19 66 87
19 67 108
19 68 155
19 69 221
19 70 148
19 71 119
19 72 60
19 73 152
19 74 163
19 75 123
19 76 11
19 77 230
19 78 218
19 79 235
19 80 103
19 81 35
19 82 158
19 83 94
19 84 137
19 85 171
19 86 169
19 87 6
19 88 19
19 89 214
19 90 53
20 21 30
20 22 113
20 23 224
20 24 116
20 25 3
20 26 46
20 27 7
20 28 109
20 29 37
20 30 17
20 31 251
20 32 157
20 33 52
20 34 59
20 35 189
20 36 158
20 37 193
20 38 100
20 39 213
20 40 181
20 41 111
20 42 190
20 43 50
20 44 254
20 45 63
20 46 190
20 47 268
20 48 108
20 49 91
20 50 111
20 51 214
20 52 97
20 53 85
20 54 39
20 55 208
20 56 185
20 57 177
20 58 265
20 59 199
20 60 61
20 61 49
20 62 223
20 63 155
20 64 144
20 65 232
20 66 160
20 67 137
20 68 20
20 69 104
20 70 186
20 71 159
20 72 86
20 73 214
20 74 220
20 75 5
20 76 93
20 77 97
20 78 20
20 79 122
20 80 186
20 81 10
20 82 42
20 83 247
20 84 265
20 85 241
20 86 64
20 87 61
20 88 134
20 89 199
20 90 132
21 22 205
21 23 140
21 24 99
21 25 2
21 26 268
21 27 158
21 28 73
21 29 140
21 30 138
21 31 176
21 32 73
21 33 126
21 34 88
21 35 59
21 36 252
21 37 212
21 38 16
21 39 42
21 40 18
21 41 62
21 42 133
21 43 2
21 44 3
21 45 76
21 46 48
21 47 218
21 48 140
21 49 160
21 50 103
21 51 94
21 52 119
21 53 265
21 54 252
21 55 100
21 56 113
21 57 202
21 58 95
21 59 43
21 60 133
21 61 200
21 62 188
21 63 153
21 64 245
21 65 108
21 66 259
21 67 39
21 68 75
21 69 235
21 70 259
21 71 9
21 72 263
21 73 8
21 74 114
21 75 263
21 76 255
21 77 205
21 78 166
21 79 102
21 80 102
21 81 267
21 82 73
21 83 145
21 84 123
21 85 183
21 86 122
21 87 207
21 88 87
21 89 114
21 90 191
22 23 73
22 24 19
22 25 73
22 26 265
22 27 44
22 28 179
22 29 109
22 30 207
22 31 64
22 32 65
22 33 88
22 34 149
22 35 207
22 36 241
22 37 228
22 38 154
22 39 261
22 40 132
22 41 122
22 42 45
22 43 247
22 44 178
22 45 233
22 46 171
22 47 94
22 48 206
22 49 98
22 50 115
22 51 177
22 52 62
22 53 199
22 54 101
22 55 206
22 56 257
22 57 265
22 58 206
22 59 44
22 60 186
22 61 176
22 62 20
22 63 252
22 64 69
22 65 234
22 66 206
22 67 243
22 68 176
22 69 21
22 70 238
22 71 218
22 72 260
22 73 163
22 74 159
22 75 218
22 76 171
22 77 201
22 78 30
22 79 264
22 80 40
22 81 133
22 82 73
22 83 106
22 84 115
22 85 269
22 86 65
22 87 140
22 88 120
22 89 199
22 90 84
23 24 144
23 25 85
23 26 155
23 27 150
23 28 50
23 29 134
23 30 233
23 31 84
23 32 246
23 33 123
23 34 125
23 35 184
23 36 98
23 37 25
23 38 163
23 39 54
23 40 116
23 41 8
23 42 32
23 43 65
23 44 77
23 45 211
23 46 15
23 47 76
23 48 163
23 49 131
23 50 75
23 51 3
23 52 50
23 53 186
23 54 113
23 55 188
23 56 198
23 57 214
23 58 47
23 59 129
23 60 246
23 61 132
23 62 102
23 63 194
23 64 159
23 65 217
23 66 50
23 67 144
23 68 205
23 69 80
23 70 72
23 71 248
23 72 256
23 73 116
23 74 75
23 75 213
23 76 8
23 77 182
23 78 82
23 79 183
23 80 159
23 81 237
23 82 108
23 83 189
23 84 34
23 85 80
23 86 204
23 87 190
23 88 219
23 89 46
23 90 229
24 25 46
24 26 155
24 27 265
24 28 222
24 29 196
24 30 54
24 31 239
24 32 178
24 33 135
24 34 238
24 35 255
24 36 243
24 37 163
24 38 242
24 39 11
24 40 164
24 41 202
24 42 199
24 43 18
24 44 99
24 45 115
24 46 239
24 47 260
24 48 55
24 49 151
24 50 64
24 51 125
24 52 98
24 53 133
24 54 157
24 55 165
24 56 138
24 57 108
24 58 117
24 59 94
24 60 7
24 61 148
24 62 79
24 63 71
24 64 257
24 65 138
24 66 211
24 67 200
24 68 12
24 69 5
24 70 189
24 71 215
24 72 249
24 73 158
24 74 76
24 75 1
24 76 227
24 77 19
24 78 177
24 79 38
24 80 245
24 81 129
24 82 246
24 83 216
24 84 267
24 85 198
24 86 74
24 87 100
24 88 9
24 89 54
24 90 246
25 26 86
25 27 142
25 28 33
25 29 83
25 30 190
25 31 116
25 32 176
25 33 267
25 34 27
25 35 32
25 36 185
25 37 22
25 38 120
25 39 20
25 40 44
25 41 189
25 42 58
25 43 119
25 44 198
25 45 104
25 46 67
25 47 7
25 48 265
25 49 235
25 50 33
25 51 50
25 52 121
25 53 153
25 54 204
25 55 88
25 56 73
25 57 100
25 58 245
25 59 207
25 60 260
25 61 170
25 62 81
25 63 104
25 64 15
25 65 197
25 66 235
25 67 266
25 68 225
25 69 15
25 70 56
25 71 10
25 72 194
25 73 69
25 74 197
25 75 218
25 76 223
25 77 213
25 78 116
25 79 264
25 80 29
25 81 31
25 82 264
25 83 13
25 84 5
25 85 183
25 86 223
25 87 240
25 88 213
25 89 115
25 90 157
26 27 25
26 28 117
26 29 76
26 30 95
26 31 42
26 32 129
26 33 12
26 34 35
26 35 188
26 36 213
26 37 136
26 38 219
26 39 76
26 40 41
26 41 251
26 42 44
26 43 167
26 44 157
26 45 221
26 46 145
26 47 15
26 48 263
26 49 83
26 50 242
26 51 69
26 52 8
26 53 148
26 54 64
26 55 94
26 56 7
26 57 24
26 58 146
26 59 112
26 60 40
26 61 170
26 62 23
26 63 208
26 64 223
26 65 52
26 66 197
26 67 61
26 68 188
26 69 19
26 70 208
26 71 217
26 72 23
26 73 94
26 74 58
26 75 179
26 76 146
26 77 231
26 78 130
26 79 152
26 80 1
26 81 198
26 82 141
26 83 84
26 84 205
26 85 231
26 86 255
26 87 2
26 88 54
26 89 200
26 90 263
27 28 189
27 29 237
27 30 222
27 31 86
27 32 46
27 33 176
27 34 207
27 35 1
27 36 120
27 37 23
27 38 185
27 39 125
27 40 50
27 41 210
27 42 66
27 43 183
27 44 192
27 45 125
27 46 197
27 47 123
27 48 196
27 49 81
27 50 192
27 51 177
27 52 98
27 53 19
27 54 143
27 55 122
27 56 186
27 57 229
27 58 231
27 59 127
27 60 200
27 61 190
27 62 170
27 63 200
27 64 53
27 65 195
27 66 168
27 67 6
27 68 25
27 69 163
27 70 97
27 71 80
27 72 46
27 73 193
27 74 81
27 75 83
27 76 213
27 77 257
27 78 61
27 79 221
27 80 209
27 81 101
27 82 105
27 83 31
27 84 254
27 85 15
27 86 67
27 87 268
27 88 47
27 89 195
27 90 235
28 29 142
28 30 144
28 31 193
28 32 211
28 33 36
28 34 68
28 35 87
28 36 32
28 37 79
28 38 170
28 39 205
28 40 69
28 41 55
28 42 157
28 43 169
28 44 213
28 45 138
28 46 214
28 47 57
28 48 42
28 49 141
28 50 197
28 51 251
28 52 224
28 53 80
28 54 12
28 55 84
28 56 199
28 57 24
28 58 30
28 59 239
28 60 196
28 61 124
28 62 157
28 63 68
28 64 260
28 65 145
28 66 153
28 67 173
28 68 222
28 69 13
28 70 94
28 71 118
28 72 99
28 73 18
28 74 155
28 75 146
28 76 16
28 77 133
28 78 256
28 79 16
28 80 139
28 81 172
28 82 160
28 83 248
28 84 92
28 85 155
28 86 92
28 87 241
28 88 242
28 89 136
28 90 143
29 30 129
29 31 33
29 32 132
29 33 62
29 34 171
29 35 213
29 36 68
29 37 166
29 38 172
29 39 38
29 40 262
29 41 53
29 42 176
29 43 72
29 44 151
29 45 131
29 46 88
29 47 110
29 48 210
29 49 219
29 50 30
29 51 24
29 52 216
29 53 263
29 54 246
29 55 230
29 56 93
29 57 187
29 58 66
29 59 168
29 60 187
29 61 91
29 62 21
29 63 55
29 64 4
29 65 252
29 66 130
29 67 253
29 68 96
29 69 247
29 70 54
29 71 25
29 72 107
29 73 268
29 74 266
29 75 169
29 76 199
29 77 31
29 78 121
29 79 81
29 80 41
29 81 48
29 82 105
29 83 56
29 84 79
29 85 248
29 86 114
29 87 132
29 88 203
29 89 177
29 90 106
30 31 33
30 32 52
30 33 181
30 34 1
30 35 212
30 36 84
30 37 91
30 38 16
30 39 108
30 40 223
30 41 203
30 42 40
30 43 190
30 44 25
30 45 20
30 46 218
30 47 146
30 48 48
30 49 240
30 50 253
30 51 11
30 52 72
30 53 115
30 54 201
30 55 194
30 56 195
30 57 62
30 58 130
30 59 49
30 60 18
30 61 0
30 62 247
30 63 1
30 64 252
30 65 193
30 66 233
30 67 77
30 68 104
30 69 195
30 70 263
30 71 144
30 72 224
30 73 183
30 74 12
30 75 94
30 76 266
30 77 240
30 78 180
30 79 80
30 80 124
30 81 89
30 82 245
30 83 115
30 84 185
30 85 56
30 86 34
30 87 74
30 88 49
30 89 83
30 90 132
31 32 132
31 33 100
31 34 62
31 35 84
31 36 187
31 37 97
31 38 130
31 39 87
31 40 73
31 41 207
31 42 94
31 43 241
31 44 132
31 45 103
31 46 113
31 47 161
31 48 133
31 49 264
31 50 53
31 51 237
31 52 219
31 53 156
31 54 119
31 55 227
31 56 57
31 57 245
31 58 126
31 59 69
31 60 240
31 61 47
31 62 14
31 63 40
31 64 163
31 65 148
31 66 241
31 67 132
31 68 220
31 69 226
31 70 161
31 71 62
31 72 132
31 73 179
31 74 39
31 75 84
31 76 81
31 77 74
31 78 17
31 79 81
31 80 49
31 81 110
31 82 10
31 83 141
31 84 178
31 85 82
31 86 247
31 87 223
31 88 164
31 89 255
31 90 207
32 33 174
32 34 227
32 35 129
32 36 125
32 37 187
32 38 63
32 39 138
32 40 224
32 41 140
32 42 50
32 43 182
32 44 112
32 45 17
32 46 239
32 47 26
32 48 99
32 49 217
32 50 48
32 51 239
32 52 259
32 53 213
32 54 168
32 55 188
32 56 201
32 57 126
32 58 214
32 59 5
32 60 211
32 61 114
32 62 13
32 63 205
32 64 248
32 65 66
32 66 170
32 67 145
32 68 146
32 69 224
32 70 207
32 71 120
32 72 257
32 73 84
32 74 75
32 75 95
32 76 210
32 77 50
32 78 63
32 79 220
32 80 37
32 81 175
32 82 177
32 83 243
32 84 166
32 85 133
32 86 144
32 87 164
32 88 246
32 89 174
32 90 241
33 34 53
33 35 101
33 36 174
33 37 67
33 38 19
33 39 138
33 40 1
33 41 266
33 42 188
33 43 81
33 44 129
33 45 217
33 46 113
33 47 257
33 48 93
33 49 120
33 50 13
33 51 202
33 52 161
33 53 115
33 54 76
33 55 213
33 56 27
33 57 239
33 58 177
33 59 64
33 60 231
33 61 7
33 62 37
33 63 66
33 64 123
33 65 251
33 66 44
33 67 24
33 68 220
33 69 14
33 70 0
33 71 190
33 72 260
33 73 52
33 74 48
33 75 163
33 76 264
33 77 143
33 78 129
33 79 176
33 80 84
33 81 261
33 82 158
33 83 101
33 84 32
33 85 114
33 86 162
33 87 17
33 88 32
33 89 42
33 90 84
34 35 121
34 36 158
34 37 197
34 38 101
34 39 252
34 40 249
34 41 40
34 42 160
34 43 208
34 44 28
34 45 163
34 46 52
34 47 74
34 48 174
34 49 109
34 50 211
34 51 170
34 52 22
34 53 217
34 54 28
34 55 235
34 56 81
34 57 94
34 58 132
34 59 199
34 60 39
34 61 225
34 62 15
34 63 158
34 64 118
34 65 45
34 66 85
34 67 235
34 68 77
34 69 5
34 70 35
34 71 198
34 72 132
34 73 151
34 74 170
34 75 55
34 76 253
34 77 236
34 78 23
34 79 146
34 80 250
34 81 223
34 82 26
34 83 70
34 84 43
34 85 135
34 86 169
34 87 197
34 88 213
34 89 94
34 90 231
35 36 190
35 37 239
35 38 258
35 39 206
35 40 123
35 41 57
35 42 83
35 43 58
35 44 217
35 45 190
35 46 55
35 47 195
35 48 268
35 49 7
35 50 31
35 51 89
35 52 101
35 53 178
35 54 227
35 55 23
35 56 210
35 57 202
35 58 194
35 59 87
35 60 62
35 61 142
35 62 255
35 63 218
35 64 254
35 65 64
35 66 242
35 67 50
35 68 244
35 69 18
35 70 56
35 71 220
35 72 266
35 73 15
35 74 72
35 75 78
35 76 95
35 77 104
35 78 244
35 79 8
35 80 206
35 81 149
35 82 245
35 83 200
35 84 66
35 85 130
35 86 215
35 87 107
35 88 265
35 89 83
35 90 35
36 37 235
36 38 65
36 39 157
36 40 107
36 41 207
36 42 46
36 43 204
36 44 142
36 45 123
36 46 246
36 47 243
36 48 73
36 49 30
36 50 85
36 51 126
36 52 233
36 53 135
36 54 227
36 55 35
36 56 25
36 57 203
36 58 36
36 59 252
36 60 95
36 61 172
36 62 129
36 63 25
36 64 244
36 65 244
36 66 66
36 67 155
36 68 224
36 69 190
36 70 21
36 71 93
36 72 49
36 73 231
36 74 146
36 75 255
36 76 235
36 77 204
36 78 16
36 79 48
36 80 94
36 81 42
36 82 30
36 83 242
36 84 214
36 85 227
36 86 188
36 87 189
36 88 15
36 89 61
36 90 247
37 38 98
37 39 219
37 40 232
37 41 218
37 42 213
37 43 159
37 44 120
37 45 184
37 46 223
37 47 197
37 48 188
37 49 75
37 50 5
37 51 107
37 52 138
37 53 198
37 54 169
37 55 29
37 56 242
37 57 209
37 58 50
37 59 151
37 60 134
37 61 253
37 62 149
37 63 7
37 64 128
37 65 59
37 66 211
37 67 34
37 68 46
37 69 170
37 70 100
37 71 112
37 72 191
37 73 71
37 74 132
37 75 27
37 76 45
37 77 260
37 78 147
37 79 4
37 80 195
37 81 33
37 82 8
37 83 56
37 84 231
37 85 131
37 86 254
37 87 37
37 88 201
37 89 125
37 90 207
38 39 232
38 40 145
38 41 173
38 42 96
38 43 155
38 44 202
38 45 125
38 46 188
38 47 97
38 48 182
38 49 208
38 50 243
38 51 105
38 52 205
38 53 34
38 54 4
38 55 262
38 56 86
38 57 74
38 58 159
38 59 34
38 60 246
38 61 62
38 62 202
38 63 197
38 64 176
38 65 212
38 66 85
38 67 225
38 68 138
38 69 188
38 70 226
38 71 69
38 72 227
38 73 27
38 74 210
38 75 187
38 76 191
38 77 261
38 78 136
38 79 38
38 80 166
38 81 139
38 82 19
38 83 225
38 84 255
38 85 200
38 86 21
38 87 159
38 88 92
38 89 19
38 90 41
39 40 57
39 41 242
39 42 145
39 43 60
39 44 158
39 45 114
39 46 142
39 47 12
39 48 147
39 49 249
39 50 255
39 51 24
39 52 262
39 53 9
39 54 152
39 55 268
39 56 225
39 57 221
39 58 132
39 59 85
39 60 82
39 61 34
39 62 162
39 63 50
39 64 174
39 65 267
39 66 110
39 67 29
39 68 45
39 69 36
39 70 34
39 71 178
39 72 98
39 73 225
39 74 138
39 75 131
39 76 152
39 77 77
39 78 194
39 79 159
39 80 43
39 81 83
39 82 136
39 83 125
39 84 267
39 85 249
39 86 175
39 87 40
39 88 103
39 89 46
39 90 221
40 41 14
40 42 241
40 43 231
40 44 69
40 45 79
40 46 78
40 47 184
40 48 24
40 49 61
40 50 214
40 51 71
40 52 151
40 53 97
40 54 269
40 55 0
40 56 227
40 57 96
40 58 255
40 59 37
40 60 264
40 61 129
40 62 201
40 63 52
40 64 111
40 65 33
40 66 195
40 67 141
40 68 148
40 69 146
40 70 251
40 71 105
40 72 208
40 73 130
40 74 104
40 75 82
40 76 48
40 77 42
40 78 17
40 79 14
40 80 166
40 81 237
40 82 157
40 83 224
40 84 2
40 85 163
40 86 150
40 87 144
40 88 154
40 89 144
40 90 229
41 42 203
41 43 96
41 44 15
41 45 226
41 46 100
41 47 100
41 48 160
41 49 99
41 50 156
41 51 190
41 52 148
41 53 169
41 54 30
41 55 195
41 56 50
41 57 186
41 58 218
41 59 111
41 60 17
41 61 249
41 62 97
41 63 139
41 64 145
41 65 266
41 66 223
41 67 151
41 68 129
41 69 23
41 70 19
41 71 99
41 72 44
41 73 38
41 74 165
41 75 163
41 76 62
41 77 205
41 78 176
41 79 81
41 80 28
41 81 19
41 82 167
41 83 44
41 84 188
41 85 68
41 86 245
41 87 247
41 88 128
41 89 96
41 90 267
42 43 44
42 44 90
42 45 77
42 46 29
42 47 71
42 48 11
42 49 47
42 50 53
42 51 85
42 52 244
42 53 130
42 54 125
42 55 9
42 56 57
42 57 102
42 58 179
42 59 7
42 60 202
42 61 90
42 62 152
42 63 197
42 64 70
42 65 264
42 66 73
42 67 113
42 68 254
42 69 243
42 70 208
42 71 14
42 72 127
42 73 188
42 74 254
42 75 245
42 76 204
42 77 117
42 78 251
42 79 245
42 80 226
42 81 113
42 82 164
42 83 19
42 84 77
42 85 150
42 86 262
42 87 111
42 88 142
42 89 217
42 90 74
43 44 133
43 45 86
43 46 204
43 47 57
43 48 81
43 49 157
43 50 214
43 51 89
43 52 218
43 53 150
43 54 62
43 55 229
43 56 66
43 57 93
43 58 103
43 59 221
43 60 111
43 61 54
43 62 261
43 63 85
43 64 227
43 65 259
43 66 68
43 67 150
43 68 182
43 69 11
43 70 236
43 71 60
43 72 157
43 73 5
43 74 236
43 75 94
43 76 78
43 77 239
43 78 265
43 79 43
43 80 195
43 81 225
43 82 172
43 83 11
43 84 224
43 85 11
43 86 222
43 87 191
43 88 119
43 89 92
43 90 164
44 45 216
44 46 151
44 47 207
44 48 132
44 49 139
44 50 92
44 51 187
44 52 94
44 53 167
44 54 104
44 55 166
44 56 180
44 57 9
44 58 58
44 59 10
44 60 233
44 61 26
44 62 123
44 63 231
44 64 33
44 65 32
44 66 140
44 67 22
44 68 196
44 69 161
44 70 227
44 71 75
44 72 207
44 73 242
44 74 74
44 75 256
44 76 143
44 77 249
44 78 104
44 79 218
44 80 235
44 81 76
44 82 218
44 83 185
44 84 167
44 85 268
44 86 213
44 87 75
44 88 120
44 89 198
44 90 103
45 46 45
45 47 156
45 48 101
45 49 219
45 50 88
45 51 248
45 52 19
45 53 199
45 54 96
45 55 148
45 56 157
45 57 177
45 58 3
45 59 22
45 60 229
45 61 265
45 62 73
45 63 141
45 64 77
45 65 138
45 66 0
45 67 118
45 68 38
45 69 135
45 70 259
45 71 150
45 72 16
45 73 148
45 74 177
45 75 191
45 76 127
45 77 245
45 78 14
45 79 213
45 80 218
45 81 174
45 82 208
45 83 82
45 84 194
45 85 31
45 86 180
45 87 14
45 88 259
45 89 207
45 90 229
46 47 90
46 48 76
46 49 243
46 50 95
46 51 73
46 52 242
46 53 22
46 54 110
46 55 204
46 56 267
46 57 195
46 58 88
46 59 30
46 60 72
46 61 100
46 62 71
46 63 76
46 64 57
46 65 52
46 66 232
46 67 200
46 68 86
46 69 215
46 70 71
46 71 183
46 72 76
46 73 204
46 74 38
46 75 168
46 76 225
46 77 27
46 78 177
46 79 193
46 80 245
46 81 151
46 82 162
46 83 31
46 84 36
46 85 99
46 86 111
46 87 90
46 88 235
46 89 7
46 90 122
47 48 227
47 49 257
47 50 163
47 51 65
47 52 109
47 53 93
47 54 84
47 55 175
47 56 12
47 57 64
47 58 24
47 59 27
47 60 229
47 61 204
47 62 162
47 63 197
47 64 247
47 65 45
47 66 96
47 67 174
47 68 63
47 69 243
47 70 238
47 71 29
47 72 64
47 73 232
47 74 120
47 75 85
47 76 245
47 77 73
47 78 172
47 79 186
47 80 84
47 81 254
47 82 149
47 83 92
47 84 135
47 85 251
47 86 20
47 87 48
47 88 236
47 89 69
47 90 264
48 49 165
48 50 66
48 51 61
48 52 38
48 53 33
48 54 227
48 55 128
48 56 31
48 57 180
48 58 109
48 59 54
48 60 18
48 61 260
48 62 30
48 63 67
48 64 209
48 65 37
48 66 204
48 67 196
48 68 98
48 69 92
48 70 3
48 71 218
48 72 23
48 73 203
48 74 100
48 75 150
48 76 81
48 77 122
48 78 188
48 79 241
48 80 15
48 81 43
48 82 62
48 83 1
48 84 173
48 85 229
48 86 200
48 87 123
48 88 64
48 89 106
48 90 60
49 50 155
49 51 90
49 52 193
49 53 206
49 54 40
49 55 260
49 56 37
49 57 101
49 58 78
49 59 14
49 60 119
49 61 93
49 62 44
49 63 206
49 64 40
49 65 76
49 66 258
49 67 190
49 68 248
49 69 46
49 70 59
49 71 149
49 72 186
49 73 81
49 74 45
49 75 87
49 76 30
49 77 3
49 78 131
49 79 152
49 80 21
49 81 162
49 82 144
49 83 44
49 84 4
49 85 261
49 86 236
49 87 212
49 88 66
49 89 88
49 90 177
50 51 239
50 52 136
50 53 136
50 54 179
50 55 24
50 56 32
50 57 140
50 58 106
50 59 106
50 60 72
50 61 86
50 62 63
50 63 111
50 64 57
50 65 100
50 66 165
50 67 80
50 68 179
50 69 20
50 70 12
50 71 202
50 72 160
50 73 10
50 74 107
50 75 179
50 76 139
50 77 120
50 78 182
50 79 208
50 80 259
50 81 121
50 82 139
50 83 139
50 84 208
50 85 142
50 86 43
50 87 73
50 88 243
50 89 92
50 90 93
51 52 41
51 53 146
51 54 36
51 55 65
51 56 115
51 57 203
51 58 95
51 59 51
51 60 83
51 61 20
51 62 223
51 63 265
51 64 17
51 65 258
51 66 245
51 67 231
51 68 167
51 69 197
51 70 269
51 71 210
51 72 26
51 73 67
51 74 205
51 75 52
51 76 44
51 77 245
51 78 86
51 79 142
51 80 214
51 81 86
51 82 193
51 83 83
51 84 205
51 85 15
51 86 193
51 87 87
51 88 154
51 89 36
51 90 9
52 53 43
52 54 189
52 55 173
52 56 145
52 57 193
52 58 240
52 59 264
52 60 112
52 61 104
52 62 220
52 63 86
52 64 248
52 65 208
52 66 18
52 67 74
52 68 203
52 69 26
52 70 242
52 71 103
52 72 17
52 73 258
52 74 74
52 75 38
52 76 258
52 77 78
52 78 180
52 79 68
52 80 0
52 81 222
52 82 66
52 83 55
52 84 27
52 85 138
52 86 40
52 87 201
52 88 52
52 89 70
52 90 157
53 54 146
53 55 214
53 56 143
53 57 72
53 58 184
53 59 41
53 60 266
53 61 43
53 62 39
53 63 114
53 64 97
53 65 93
53 66 68
53 67 163
53 68 216
53 69 160
53 70 7
53 71 152
53 72 64
53 73 247
53 74 65
53 75 132
53 76 242
53 77 236
53 78 256
53 79 197
53 80 218
53 81 97
53 82 250
53 83 40
53 84 82
53 85 196
53 86 146
53 87 102
53 88 107
53 89 222
53 90 196
54 55 106
54 56 113
54 57 37
54 58 239
54 59 126
54 60 192
54 61 212
54 62 29
54 63 125
54 64 191
54 65 129
54 66 219
54 67 5
54 68 107
54 69 18
54 70 209
54 71 223
54 72 150
54 73 154
54 74 151
54 75 20
54 76 49
54 77 86
54 78 261
54 79 51
54 80 63
54 81 100
54 82 57
54 83 104
54 84 32
54 85 74
54 86 252
54 87 104
54 88 117
54 89 179
54 90 72
55 56 223
55 57 264
55 58 10
55 59 73
55 60 215
55 61 96
55 62 193
55 63 162
55 64 180
55 65 169
55 66 256
55 67 261
55 68 126
55 69 259
55 70 232
55 71 245
55 72 170
55 73 203
55 74 269
55 75 242
55 76 82
55 77 184
55 78 258
55 79 30
55 80 103
55 81 5
55 82 243
55 83 253
55 84 209
55 85 207
55 86 205
55 87 154
55 88 155
55 89 136
55 90 103
56 57 49
56 58 249
56 59 55
56 60 134
56 61 47
56 62 233
56 63 14
56 64 153
56 65 134
56 66 155
56 67 122
56 68 75
56 69 209
56 70 258
56 71 176
56 72 185
56 73 177
56 74 62
56 75 164
56 76 67
56 77 46
56 78 9
56 79 47
56 80 176
56 81 166
56 82 64
56 83 35
56 84 204
56 85 12
56 86 22
56 87 210
56 88 226
56 89 186
56 90 110
57 58 102
57 59 165
57 60 50
57 61 93
57 62 188
57 63 246
57 64 33
57 65 170
57 66 67
57 67 10
57 68 257
57 69 115
57 70 174
57 71 150
57 72 162
57 73 54
57 74 85
57 75 232
57 76 121
57 77 119
57 78 120
57 79 84
57 80 3
57 81 236
57 82 92
57 83 241
57 84 51
57 85 10
57 86 7
57 87 167
57 88 84
57 89 84
57 90 238
58 59 156
58 60 126
58 61 145
58 62 28
58 63 110
58 64 154
58 65 108
58 66 109
58 67 252
58 68 249
58 69 264
58 70 132
58 71 89
58 72 210
58 73 26
58 74 132
58 75 171
58 76 76
58 77 93
58 78 163
58 79 110
58 80 248
58 81 3
58 82 257
58 83 132
58 84 102
58 85 235
58 86 39
58 87 28
58 88 17
58 89 25
58 90 170
59 60 89
59 61 30
59 62 198
59 63 33
59 64 61
59 65 254
59 66 94
59 67 154
59 68 243
59 69 76
59 70 23
59 71 255
59 72 98
59 73 192
59 74 184
59 75 7
59 76 252
59 77 155
59 78 24
59 79 247
59 80 259
59 81 78
59 82 4
59 83 209
59 84 165
59 85 185
59 86 35
59 87 52
59 88 120
59 89 25
59 90 56
60 61 228
60 62 102
60 63 178
60 64 190
60 65 119
60 66 67
60 67 62
60 68 22
60 69 106
60 70 235
60 71 187
60 72 239
60 73 106
60 74 189
60 75 92
60 76 115
60 77 107
60 78 263
60 79 114
60 80 94
60 81 227
60 82 145
60 83 164
60 84 70
60 85 1
60 86 241
60 87 225
60 88 19
60 89 197
60 90 18
61 62 111
61 63 199
61 64 240
61 65 244
61 66 112
61 67 54
61 68 219
61 69 14
61 70 43
61 71 24
61 72 80
61 73 63
61 74 222
61 75 141
61 76 14
61 77 52
61 78 18
61 79 200
61 80 58
61 81 195
61 82 57
61 83 45
61 84 267
61 85 193
61 86 138
61 87 227
61 88 2
61 89 255
61 90 7
62 63 46
62 64 254
62 65 192
62 66 210
62 67 108
62 68 183
62 69 230
62 70 166
62 71 113
62 72 216
62 73 37
62 74 139
62 75 74
62 76 54
62 77 72
62 78 116
62 79 167
62 80 92
62 81 62
62 82 134
62 83 2
62 84 136
62 85 154
62 86 85
62 87 55
62 88 254
62 89 203
62 90 197
63 64 250
63 65 153
63 66 172
63 67 79
63 68 236
63 69 44
63 70 8
63 71 112
63 72 2
63 73 195
63 74 99
63 75 147
63 76 185
63 77 216
63 78 124
63 79 80
63 80 109
63 81 256
63 82 147
63 83 31
63 84 183
63 85 267
63 86 28
63 87 12
63 88 89
63 89 228
63 90 104
64 65 139
64 66 134
64 67 87
64 68 253
64 69 90
64 70 160
64 71 222
64 72 18
64 73 66
64 74 228
64 75 125
64 76 249
64 77 146
64 78 16
64 79 229
64 80 9
64 81 56
64 82 258
64 83 218
64 84 207
64 85 104
64 86 170
64 87 215
64 88 67
64 89 120
64 90 201
65 66 48
65 67 0
65 68 21
65 69 54
65 70 55
65 71 163
65 72 124
65 73 205
65 74 18
65 75 238
65 76 82
65 77 223
65 78 249
65 79 32
65 80 76
65 81 115
65 82 40
65 83 213
65 84 81
65 85 189
65 86 51
65 87 229
65 88 104
65 89 209
65 90 243
66 67 58
66 68 222
66 69 76
66 70 176
66 71 244
66 72 177
66 73 18
66 74 190
66 75 84
66 76 161
66 77 252
66 78 122
66 79 28
66 80 134
66 81 142
66 82 1
66 83 188
66 84 191
66 85 185
66 86 221
66 87 231
66 88 40
66 89 66
66 90 259
67 68 227
67 69 58
67 70 167
67 71 269
67 72 129
67 73 166
67 74 48
67 75 78
67 76 251
67 77 43
67 78 219
67 79 21
67 80 29
67 81 145
67 82 108
67 83 17
67 84 31
67 85 149
67 86 228
67 87 80
67 88 171
67 89 52
67 90 108
68 69 230
68 70 215
68 71 92
68 72 116
68 73 178
68 74 248
68 75 141
68 76 157
68 77 57
68 78 101
68 79 265
68 80 67
68 81 211
68 82 84
68 83 225
68 84 26
68 85 177
68 86 163
68 87 231
68 88 255
68 89 62
68 90 68
69 70 141
69 71 75
69 72 63
69 73 163
69 74 167
69 75 239
69 76 65
69 77 183
69 78 56
69 79 229
69 80 57
69 81 52
69 82 145
69 83 157
69 84 124
69 85 42
69 86 252
69 87 107
69 88 47
69 89 97
69 90 177
70 71 8
70 72 116
70 73 150
70 74 118
70 75 83
70 76 153
70 77 33
70 78 0
70 79 99
70 80 44
70 81 129
70 82 70
70 83 129
70 84 216
70 85 136
70 86 56
70 87 127
70 88 233
70 89 65
70 90 149
71 72 136
71 73 11
71 74 120
71 75 64
71 76 145
71 77 170
71 78 187
71 79 227
71 80 215
71 81 222
71 82 160
71 83 102
71 84 181
71 85 119
71 86 162
71 87 228
71 88 161
71 89 115
71 90 48
72 73 58
72 74 217
72 75 168
72 76 126
72 77 53
72 78 111
72 79 99
72 80 255
72 81 189
72 82 17
72 83 51
72 84 59
72 85 159
72 86 148
72 87 125
72 88 59
72 89 12
72 90 78
73 74 217
73 75 20
73 76 203
73 77 245
73 78 168
73 79 200
73 80 3
73 81 120
73 82 174
73 83 109
73 84 176
73 85 24
73 86 165
73 87 233
73 88 245
73 89 189
73 90 66
74 75 263
74 76 195
74 77 89
74 78 2
74 79 180
74 80 183
74 81 171
74 82 73
74 83 62
74 84 62
74 85 119
74 86 233
74 87 65
74 88 100
74 89 254
74 90 255
75 76 19
75 77 72
75 78 16
75 79 258
75 80 151
75 81 249
75 82 157
75 83 168
75 84 228
75 85 82
75 86 57
75 87 123
75 88 222
75 89 253
75 90 197
76 77 208
76 78 68
76 79 154
76 80 184
76 81 109
76 82 13
76 83 64
76 84 155
76 85 6
76 86 237
76 87 216
76 88 199
76 89 160
76 90 238
77 78 4
77 79 192
77 80 215
77 81 195
77 82 253
77 83 21
77 84 259
77 85 59
77 86 209
77 87 63
77 88 157
77 89 243
77 90 252
78 79 123
78 80 100
78 81 8
78 82 256
78 83 171
78 84 34
78 85 257
78 86 19
78 87 69
78 88 201
78 89 183
78 90 56
79 80 78
79 81 73
79 82 24
79 83 224
79 84 64
79 85 1
79 86 148
79 87 106
79 88 74
79 89 190
79 90 144
80 81 245
80 82 83
80 83 22
80 84 192
80 85 59
80 86 238
80 87 24
80 88 245
80 89 262
80 90 233
81 82 42
81 83 7
81 84 131
81 85 269
81 86 104
81 87 99
81 88 194
81 89 228
81 90 110
82 83 231
82 84 50
82 85 253
82 86 118
82 87 44
82 88 149
82 89 59
82 90 134
83 84 204
83 85 12
83 86 114
83 87 150
83 88 185
83 89 206
83 90 94
84 85 266
84 86 124
84 87 128
84 88 146
84 89 202
84 90 267
85 86 98
85 87 33
85 88 197
85 89 82
85 90 216
86 87 161
86 88 185
86 89 162
86 90 77
87 88 8
87 89 144
87 90 215
88 89 156
88 90 177
89 90 138
